c
c This is a SAT encoding of the 
c "Mutilated Checcboard"
c problem for n=2.
c
p cnf 20 56
1 2 0
-1 -2 0
2 3 4 0
-2 -3 0
-2 -4 0
-3 -4 0
4 5 0
-4 -5 0
6 7 0
-6 -7 0
1 7 8 9 0
-1 -7 0
-1 -8 0
-1 -9 0
-7 -8 0
-7 -9 0
-8 -9 0
3 9 10 11 0
-3 -9 0
-3 -10 0
-3 -11 0
-9 -10 0
-9 -11 0
-10 -11 0
5 11 12 0
-5 -11 0
-5 -12 0
-11 -12 0
6 13 14 0
-6 -13 0
-6 -14 0
-13 -14 0
8 14 15 16 0
-8 -14 0
-8 -15 0
-8 -16 0
-14 -15 0
-14 -16 0
-15 -16 0
10 16 17 18 0
-10 -16 0
-10 -17 0
-10 -18 0
-16 -17 0
-16 -18 0
-17 -18 0
12 18 0
-12 -18 0
13 19 0
-13 -19 0
15 19 20 0
-15 -19 0
-15 -20 0
-19 -20 0
17 20 0
-17 -20 0
